max_pieces_per_layer = 12;
layer_length = 300.0;
min_consecutive_distance = 50;

original_lengths = 
  [120.0, 80.0, 0.0, 0.0, 0.0, 0.0, 0.0, 0.0, 0.0, 0.0,
   0.0, 100.0, 0.0, 300.0, 0.0, 0.0, 0.0, 0.0, 0.0, 0.0,
   0.0, 0.0, 0.0, 0.0, 0.0, 0.0, 0.0, 190.0, 0.0, 0.0,
   0.0, 0.0, 0.0, 10.0, 0.0, 0.0, 0.0, 0.0, 0.0, 0.0];

n_forbidden_zones = 3;
forbidden_zones = array2d(1..3, 1..2,
  [0, 20,
   140, 160,
   290, 300]
);
